
List of user-set options:

                                    Name   Value                used
                           linear_solver = ma57                  yes
                  ma57_automatic_scaling = yes                   yes
                                max_iter = 300                   yes
                             mu_strategy = adaptive              yes
                             output_file = Reusable-Launch-Vehicle-Entry-ProblemIPOPTinfo.txt  yes
                             print_level = 5                     yes
                      print_user_options = yes                   yes
                                     tol = 1e-007                yes
This is Ipopt version 3.11.0, running with linear solver ma57.

Number of nonzeros in equality constraint Jacobian...:   145405
Number of nonzeros in inequality constraint Jacobian.:     2861
Number of nonzeros in Lagrangian Hessian.............:    85820

Reallocating memory for MA57: lfact (1172134)
Total number of variables............................:    18607
                     variables with only lower bounds:        0
                variables with lower and upper bounds:    18607
                     variables with only upper bounds:        0
Total number of equality constraints.................:    14310
Total number of inequality constraints...............:     1432
        inequality constraints with only lower bounds:        0
   inequality constraints with lower and upper bounds:     1432
        inequality constraints with only upper bounds:        0

iter    objective    inf_pr   inf_du lg(mu)  ||d||  lg(rg) alpha_du alpha_pr  ls
   0 1.6770571e+002 1.25e-001 1.13e+000   0.0 0.00e+000    -  0.00e+000 0.00e+000   0
   1 1.6777804e+002 1.05e-001 2.73e+003  -1.7 1.72e-002   4.0 9.90e-001 1.57e-001h  1
   2 1.6790304e+002 7.99e-002 9.36e+003  -1.7 1.46e-002   3.5 1.00e+000 2.41e-001h  1
   3 1.6842655e+002 7.94e-004 1.78e+003  -2.2 1.12e-002   3.0 1.00e+000 9.90e-001h  1
   4 1.6844303e+002 4.49e-004 5.74e+003  -3.8 2.29e-004   4.4 1.00e+000 4.34e-001h  1
   5 1.6845405e+002 2.23e-004 7.88e+003  -5.6 1.69e-004   4.8 1.00e+000 5.03e-001h  1
   6 1.6846013e+002 1.21e-004 1.27e+004  -7.4 1.17e-004   5.2 1.00e+000 4.58e-001h  1
   7 1.6846538e+002 3.58e-005 9.31e+003  -6.2 7.95e-005   5.7 1.00e+000 7.04e-001h  1
   8 1.6846970e+002 6.72e-006 2.81e+003  -7.9 7.82e-005   5.2 1.00e+000 9.93e-001h  1
   9 1.6846899e+002 1.08e-009 8.53e+001  -7.3 3.34e-005   4.7 1.00e+000 1.00e+000h  1
iter    objective    inf_pr   inf_du lg(mu)  ||d||  lg(rg) alpha_du alpha_pr  ls
  10 1.6846583e+002 2.49e-009 3.79e+001  -8.6 3.63e-005   4.2 1.00e+000 1.00e+000h  1
  11 1.6845785e+002 3.91e-006 5.37e+000  -9.5 6.26e-005   3.7 1.00e+000 9.95e-001h  1
  12 1.6842632e+002 3.07e-005 1.02e+002 -10.2 3.33e-004   3.3 1.00e+000 1.00e+000f  1
  13 1.6841434e+002 5.85e-006 1.41e+001 -10.7 2.47e-004   3.7 1.00e+000 1.00e+000h  1
  14 1.6838997e+002 4.77e-006 2.08e+001 -11.0 2.01e-004   3.2 1.00e+000 1.00e+000h  1
  15 1.6837914e+002 5.90e-006 2.15e+001 -11.0 9.96e-005   3.6 1.00e+000 1.00e+000h  1
  16 1.6832806e+002 3.38e-003 2.57e+004 -11.0 6.17e-004   3.2 1.00e+000 1.00e+000f  1
  17 1.6823492e+002 2.97e-003 5.57e+002 -10.5 6.32e-003   2.7 1.00e+000 1.00e+000h  1
  18 1.6820829e+002 3.36e-003 8.51e+002 -11.0 1.10e-003   3.1 1.00e+000 1.00e+000h  1
  19 1.6797710e+002 3.69e-003 5.97e+006  -9.0 1.72e-002   4.4 7.85e-003 6.60e-001f  1
iter    objective    inf_pr   inf_du lg(mu)  ||d||  lg(rg) alpha_du alpha_pr  ls
  20r1.6797710e+002 3.69e-003 1.00e+003  -2.4 0.00e+000   4.9 0.00e+000 3.97e-007R  2
  21r1.6795399e+002 3.46e-003 9.98e+002  -8.8 1.54e+002    -  1.26e-003 9.35e-005f  1
  22r1.6793851e+002 3.45e-003 9.97e+002  -8.8 1.07e+001  -2.0 1.15e-003 2.46e-005f  1
  23r1.6766803e+002 3.14e-003 9.97e+002  -8.8 1.15e+001  -1.6 3.78e-004 6.23e-004f  1
  24 8.3682139e+001 4.49e-001 4.04e+002 -10.9 1.37e+009    -  5.69e-009 6.69e-009f  1
  25 8.3682390e+001 4.49e-001 3.96e+002  -7.6 3.19e+000   4.4 4.01e-007 1.01e-005h  1
  26r8.3682390e+001 4.49e-001 9.99e+002   0.7 0.00e+000   3.9 0.00e+000 2.75e-007R  3
  27r8.3754579e+001 4.22e-001 9.80e+002  -5.7 4.69e+003    -  1.94e-002 9.90e-004f  1
  28 9.0319318e+001 3.94e-001 3.73e+004  -1.9 4.99e+000    -  1.48e-001 7.19e-002f  1
  29 9.9196922e+001 3.44e-001 2.56e+004  -1.4 3.98e+000    -  4.48e-001 1.27e-001f  1
iter    objective    inf_pr   inf_du lg(mu)  ||d||  lg(rg) alpha_du alpha_pr  ls
  30 1.0666345e+002 3.22e-001 3.27e+004  -0.9 3.90e+000    -  5.59e-001 6.34e-002f  1
  31 1.4113408e+002 2.38e-001 2.81e+004  -0.7 8.66e+000    -  5.39e-001 2.59e-001f  1
  32 1.4047589e+002 2.18e-001 1.01e+005  -6.5 1.04e+000   3.4 3.32e-002 8.61e-002h  1
  33 1.4074451e+002 2.13e-001 1.54e+006   0.5 1.79e+000   3.0 6.54e-001 2.48e-002f  1
  34 1.4074415e+002 6.97e-002 4.33e+006   0.0 5.44e-002   7.9 1.00e+000 1.00e+000h  1
  35 1.4074415e+002 6.79e-002 1.30e+007  -1.8 9.70e-004  10.1 1.00e+000 1.00e+000h  1
  36 1.4074413e+002 5.83e-002 1.92e+007  -3.2 4.31e-003   9.7 1.00e+000 9.68e-001h  1
  37 1.4074401e+002 4.55e-002 1.88e+007  -4.3 1.25e-002   9.2 1.00e+000 1.00e+000h  1
  38 1.4074375e+002 2.64e-002 1.83e+007  -5.2 3.84e-002   8.7 1.00e+000 5.69e-001h  1
  39 1.4074375e+002 2.63e-002 1.82e+007  -5.8 5.23e-002   8.2 1.00e+000 3.68e-003h  1
iter    objective    inf_pr   inf_du lg(mu)  ||d||  lg(rg) alpha_du alpha_pr  ls
  40 1.4074375e+002 2.63e-002 1.82e+007  -5.9 6.71e-002   7.7 1.00e+000 1.80e-004h  1
  41 1.4074182e+002 2.20e-002 1.38e+007  -5.8 1.23e-001   7.3 1.00e+000 2.61e-001h  1
  42 1.4074161e+002 2.21e-002 1.90e+007  -5.8 5.48e-002   7.7 1.00e+000 6.69e-002h  1
  43 1.4074024e+002 2.19e-002 1.65e+007  -5.5 1.41e-001   7.2 1.00e+000 1.35e-001h  1
  44 1.4073780e+002 2.15e-002 1.52e+007  -5.1 3.11e-001   6.7 9.92e-001 7.80e-002h  1
  45 1.4073629e+002 2.10e-002 1.46e+007  -4.7 6.32e-001   6.3 1.00e+000 3.75e-002h  1
  46 1.4073757e+002 2.09e-002 1.45e+007  -4.0 1.14e+000   5.8 1.00e+000 4.67e-003h  1
  47 1.4073757e+002 2.09e-002 1.43e+007  -5.1 1.02e-002   8.9 1.00e+000 1.46e-002h  1
  48 1.4073698e+002 2.15e-002 5.50e+006  -5.4 1.79e-002   8.4 1.00e+000 8.93e-001h  1
  49 1.4073654e+002 2.26e-002 4.68e+007  -4.3 1.23e-001   8.0 1.00e+000 2.12e-001h  2
iter    objective    inf_pr   inf_du lg(mu)  ||d||  lg(rg) alpha_du alpha_pr  ls
  50 1.4073581e+002 2.21e-002 4.10e+007  -4.4 9.22e-002   7.5 1.00e+000 1.27e-001h  1
  51 1.4073489e+002 2.15e-002 2.47e+007  -4.1 3.66e-002   7.9 1.00e+000 4.12e-001h  1
  52 1.4073438e+002 2.12e-002 2.29e+007  -4.4 1.06e-001   7.4 1.00e+000 7.26e-002h  1
  53 1.4073314e+002 2.02e-002 1.25e+007  -4.2 4.25e-002   7.9 1.00e+000 4.68e-001h  1
  54 1.4073314e+002 2.02e-002 1.96e+008  -5.3 2.42e-004  11.9 1.00e+000 9.99e-001h  1
  55 1.4073313e+002 2.02e-002 3.22e+007  -4.0 6.86e-005  11.4 1.00e+000 8.61e-001h  1
  56 1.4073313e+002 2.02e-002 1.54e+007  -2.0 1.72e-004  11.0 5.28e-001 1.00e+000f  1
  57 1.4073313e+002 2.02e-002 1.47e+007  -1.8 4.95e-004  10.5 1.00e+000 1.00e+000f  1
  58 1.4073310e+002 2.01e-002 1.45e+007  -1.9 1.25e-003  10.0 4.07e-001 1.00e+000h  1
  59 1.4073304e+002 1.98e-002 1.88e+007  -1.1 2.52e-003   9.5 1.00e+000 1.00e+000f  1
iter    objective    inf_pr   inf_du lg(mu)  ||d||  lg(rg) alpha_du alpha_pr  ls
  60 1.4073283e+002 1.86e-002 2.35e+007  -0.9 6.97e-003   9.0 1.00e+000 1.00e+000f  1
  61 1.4073217e+002 2.05e-002 6.70e+007  -0.5 1.79e-002   8.6 1.00e+000 1.00e+000f  1
  62 1.4073191e+002 2.11e-002 6.87e+007  -1.4 5.39e-003   9.0 1.00e+000 1.00e+000h  1
  63 1.4073180e+002 2.19e-002 6.88e+007  -2.7 1.82e-003   9.4 1.00e+000 1.00e+000h  1
  64r1.4073180e+002 2.19e-002 1.00e+003  -1.7 0.00e+000  12.6 0.00e+000 4.77e-007R 22
  65r1.4188229e+002 1.25e-002 1.27e+004  -1.0 1.14e+003    -  4.53e-002 1.02e-003f  1
  66r1.4206846e+002 1.01e-002 1.00e+004  -1.5 4.99e-001   2.0 1.24e-001 3.29e-002f  1
  67r1.4233648e+002 9.60e-003 6.71e+003  -1.3 6.29e-001   1.5 1.23e-001 1.65e-002f  1
  68r1.4233579e+002 9.84e-003 5.12e+003  -1.4 7.79e-003   4.7 2.77e-001 1.29e-001f  1
  69r1.4233667e+002 9.85e-003 6.06e+003   0.3 1.09e-002   6.0 4.23e-002 2.72e-002f  1
iter    objective    inf_pr   inf_du lg(mu)  ||d||  lg(rg) alpha_du alpha_pr  ls
  70r1.4233664e+002 9.82e-003 5.57e+003  -1.1 5.12e-003   6.4 3.01e-002 1.49e-001h  1
  71r1.4233662e+002 9.78e-003 5.21e+003  -1.1 3.94e-003   6.8 9.62e-002 1.26e-001h  1
  72r1.4233662e+002 9.73e-003 1.21e+004  -1.1 3.41e-003   7.3 1.90e-001 1.24e-001h  1
  73r1.4233662e+002 9.70e-003 4.29e+004  -1.1 2.99e-003   7.7 4.11e-001 1.04e-001h  1
  74r1.4233662e+002 9.67e-003 1.62e+005  -1.1 2.69e-003   8.1 5.81e-001 1.38e-001h  1
  75r1.4233662e+002 9.63e-003 5.13e+005  -1.1 2.32e-003   8.5 8.38e-001 1.80e-001h  1
  76r1.4233662e+002 9.61e-003 1.30e+006  -1.1 1.90e-003   9.0 8.91e-001 9.50e-002h  1
  77r1.4233662e+002 9.56e-003 4.06e+005  -1.1 1.73e-003   8.5 1.00e+000 2.88e-001h  1
  78 1.4266413e+002 9.55e-003 2.87e+004   0.1 4.35e+000    -  3.00e-001 7.17e-004f  1
  79 1.6196372e+002 8.13e-003 2.24e+004   0.1 1.31e+001    -  1.82e-002 6.48e-002f  1
iter    objective    inf_pr   inf_du lg(mu)  ||d||  lg(rg) alpha_du alpha_pr  ls
  80 1.6202368e+002 8.10e-003 2.12e+009   0.1 7.14e-001  12.1 4.72e-003 2.50e-003h  1
  81 1.6202430e+002 8.10e-003 2.18e+009   0.1 7.12e-001  12.5 1.71e-001 2.48e-005h  1
  82r1.6202430e+002 8.10e-003 9.99e+002   0.1 0.00e+000  12.0 0.00e+000 2.52e-007R  2
  83r1.6276787e+002 7.17e-003 3.90e+003  -0.8 3.20e+000    -  7.81e-001 2.18e-002f  1
  84 1.6324595e+002 7.16e-003 1.18e+004   0.1 1.45e+001    -  3.98e-002 7.34e-004h  1
  85 1.6384696e+002 6.98e-003 2.22e+010   0.1 6.69e-001  11.5 8.92e-005 2.56e-002h  1
  86 1.6385115e+002 6.98e-003 2.22e+010   0.1 6.43e-001  11.1 9.02e-001 2.09e-004h  1
  87r1.6385115e+002 6.98e-003 9.99e+002   0.1 0.00e+000  11.5 0.00e+000 2.78e-007R  4
  88r1.6551922e+002 4.03e-003 1.34e+003  -1.5 4.15e+000    -  7.76e-001 8.61e-002f  1
  89 1.6638046e+002 4.03e-003 1.24e+004   0.1 6.99e+001    -  5.58e-002 4.92e-004f  1
iter    objective    inf_pr   inf_du lg(mu)  ||d||  lg(rg) alpha_du alpha_pr  ls
  90 1.9995850e+002 3.52e-002 1.06e+004   0.1 3.94e+000    -  1.02e-001 9.30e-002f  1
  91 2.0061926e+002 3.41e-002 6.05e+009   0.1 4.16e-001  11.0 2.42e-003 3.23e-002h  1
  92 2.0062603e+002 3.41e-002 6.06e+009   0.1 4.03e-001  12.3 3.99e-001 3.37e-004h  1
  93r2.0062603e+002 3.41e-002 9.99e+002   0.1 0.00e+000  11.9 0.00e+000 3.88e-007R  4
  94r2.0079611e+002 3.25e-002 8.89e+003   0.5 2.45e+002    -  8.73e-002 2.29e-003f  1
  95 2.0101406e+002 3.25e-002 2.41e+004   0.1 7.51e+000    -  1.51e-001 5.32e-004f  1
  96 2.6182697e+002 2.31e-002 7.89e+003   0.1 3.24e+000    -  7.05e-002 2.85e-001f  1
  97 2.6186909e+002 2.30e-002 6.68e+009   0.1 2.88e-001  11.4 3.96e-003 4.90e-003h  1
  98 2.6186930e+002 2.30e-002 6.68e+009   0.1 2.88e-001  10.9 3.36e-002 6.97e-005h  1
  99r2.6186930e+002 2.30e-002 9.99e+002   0.1 0.00e+000  11.3 0.00e+000 4.66e-007R  2
iter    objective    inf_pr   inf_du lg(mu)  ||d||  lg(rg) alpha_du alpha_pr  ls
 100r2.6078815e+002 2.28e-002 1.02e+004   1.5 1.22e+003    -  1.12e-002 1.11e-003f  1
 101 2.6079311e+002 2.28e-002 1.96e+003   0.1 9.97e+000    -  5.30e-002 4.07e-004f  1
 102 2.7341404e+002 1.93e-002 4.39e+003   0.1 3.64e+000    -  1.85e-001 1.55e-001f  1
 103 2.7365378e+002 1.88e-002 6.76e+010   0.1 4.17e-001  10.9 2.75e-001 2.27e-002h  1
 104 2.7365604e+002 1.88e-002 6.76e+010   0.1 3.16e-001  10.4 7.57e-002 2.58e-004h  1
 105 2.7365635e+002 1.88e-002 4.29e+011   0.1 3.43e-001   9.9 1.62e-001 2.75e-005h  1
 106 2.7488503e+002 1.69e-002 3.55e+011   0.1 2.97e-001   9.4 4.56e-002 1.03e-001h  1
 107 2.7490209e+002 1.69e-002 2.63e+012   0.1 2.47e-001   9.9 1.00e+000 1.31e-003h  1
 108 2.7490235e+002 1.69e-002 2.26e+012   0.1 3.80e-001   9.4 2.22e-001 1.62e-005h  1
 109 2.7523203e+002 1.66e-002 4.61e+012   0.1 2.60e-001   9.8 9.41e-001 1.32e-002h  1
iter    objective    inf_pr   inf_du lg(mu)  ||d||  lg(rg) alpha_du alpha_pr  ls
 110 2.7589752e+002 1.61e-002 5.99e+012   0.1 4.21e-001  11.1 4.61e-002 3.13e-002h  1
 111 2.7799578e+002 1.47e-002 2.90e+013   0.1 2.43e-001  10.7 1.00e+000 8.60e-002h  1
 112 2.7802054e+002 1.47e-002 1.55e+015   0.1 2.21e-001  12.9 2.60e-001 1.06e-003h  1
 113 2.7802186e+002 1.47e-002 1.74e+015   0.1 2.62e-001  12.4 6.25e-001 5.35e-005h  1
 114 2.7851255e+002 1.44e-002 5.94e+014   0.1 2.88e-001  11.9 1.00e+000 1.96e-002h  1
 115 2.7921947e+002 1.40e-002 3.13e+014   0.1 6.69e-001  11.5 6.57e-001 2.86e-002h  1
 116 2.7925806e+002 1.40e-002 4.89e+014   0.1 4.68e-001  11.9 1.00e+000 1.62e-003h  1
 117 2.8029886e+002 1.33e-002 2.35e+014   0.1 1.14e+000  11.4 6.65e-001 4.78e-002h  1
 118 2.8155579e+002 1.26e-002 3.97e+014   0.1 4.05e-001  11.8 1.00e+000 5.42e-002h  1
 119 2.8383815e+002 1.13e-002 3.18e+014   0.1 5.86e-001  11.4 2.23e-001 1.02e-001h  1
iter    objective    inf_pr   inf_du lg(mu)  ||d||  lg(rg) alpha_du alpha_pr  ls
 120 2.8404346e+002 1.12e-002 3.39e+014   0.1 2.73e-001  11.8 1.00e+000 9.21e-003h  1
 121 2.8477698e+002 1.08e-002 9.60e+014   0.1 1.97e-001  12.2 1.00e+000 3.38e-002h  1
 122 2.8789198e+002 9.31e-003 2.21e+014   0.1 5.56e-001  11.7 1.00e+000 1.41e-001h  1
 123 2.8810475e+002 9.21e-003 8.01e+014   0.1 1.84e-001  12.2 1.00e+000 1.03e-002h  1
 124 2.8834518e+002 9.09e-003 4.94e+014   0.1 2.04e+000  11.7 4.40e-001 1.33e-002h  1
 125 2.8841984e+002 9.06e-003 6.67e+014   0.1 2.27e-001  12.1 1.00e+000 3.64e-003h  1
 126 2.8857752e+002 8.98e-003 2.50e+014   0.1 7.19e-001  11.6 7.12e-001 8.25e-003h  1
 127 2.8996807e+002 8.37e-003 5.30e+014   0.1 2.25e-001  12.1 1.00e+000 6.83e-002h  1
 128 2.9079501e+002 8.01e-003 1.56e+015   0.1 1.63e-001  12.5 1.00e+000 4.34e-002h  1
 129 2.9167931e+002 7.57e-003 9.19e+014   0.1 1.66e+000  12.0 4.58e-001 5.39e-002h  1
iter    objective    inf_pr   inf_du lg(mu)  ||d||  lg(rg) alpha_du alpha_pr  ls
 130 2.9202894e+002 7.43e-003 1.24e+015   0.1 1.50e-001  12.4 1.00e+000 1.95e-002h  1
 131 2.9203144e+002 7.43e-003 6.67e+014   0.1 5.51e-001  12.0 5.42e-001 1.44e-004h  1
 132 2.9208137e+002 7.41e-003 1.07e+015   0.1 1.49e-001  12.4 1.00e+000 2.81e-003h  1
 133 2.9352177e+002 6.76e-003 7.98e+014   0.1 1.44e+000  11.9 2.64e-001 8.75e-002h  1
 134 2.9461001e+002 6.30e-003 7.39e+014   0.1 1.39e-001  12.3 1.00e+000 6.76e-002h  1
 135 2.9464617e+002 6.28e-003 3.28e+014   0.1 4.61e-001  11.9 5.26e-001 2.48e-003h  1
 136 2.9464657e+002 6.28e-003 5.74e+014   0.1 1.42e-001  12.3 1.00e+000 2.57e-005h  1
 137 2.9493985e+002 6.15e-003 3.54e+014   0.1 6.84e-001  11.8 3.29e-001 2.13e-002h  3
 138 2.9496475e+002 6.14e-003 4.61e+014   0.1 1.32e-001  12.2 1.00e+000 1.64e-003h  4
 139 2.9497731e+002 6.14e-003 3.06e+014   0.1 1.73e+000  11.8 2.60e-001 9.26e-004h  7
iter    objective    inf_pr   inf_du lg(mu)  ||d||  lg(rg) alpha_du alpha_pr  ls
 140 2.9498216e+002 6.13e-003 3.69e+014   0.1 1.33e-001  12.2 1.00e+000 3.21e-004h 11
 141 2.9498265e+002 6.13e-003 1.55e+015   0.1 1.26e-001  12.6 1.00e+000 3.30e-005h 14
 142 2.9994983e+002 4.13e-003 1.95e+014   0.1 1.34e-001  12.1 1.00e+000 3.27e-001h  1
 143 2.9999950e+002 4.10e-003 3.08e+014   0.1 1.32e-001  12.6 2.56e-001 6.02e-003h  1
 144 3.0000000e+002 4.10e-003 3.11e+014   0.1 9.40e-002  13.0 1.38e-003 2.44e-004h  1
 145 3.0000000e+002 4.09e-003 3.08e+014   0.1 2.09e-001  12.5 6.61e-005 3.35e-003h  1
 146 3.0000000e+002 4.08e-003 3.04e+014   0.1 1.01e-001  12.9 6.02e-005 1.36e-003h  1
 147 3.0000000e+002 4.06e-003 3.02e+014   0.1 2.75e-001  12.4 2.41e-003 4.05e-003h  1
 148 3.0000000e+002 4.00e-003 2.80e+015   0.1 1.10e-001  12.9 1.00e+000 1.50e-002h  1
 149 3.0000000e+002 3.68e-003 2.46e+015   0.1 1.41e-001  13.3 2.87e-003 7.92e-002h  1
iter    objective    inf_pr   inf_du lg(mu)  ||d||  lg(rg) alpha_du alpha_pr  ls
 150 3.0000000e+002 3.21e-003 2.02e+015   0.1 1.69e-001  12.8 9.61e-001 1.26e-001h  1
 151 3.0000000e+002 3.13e-003 5.84e+015   0.1 2.08e-001  13.3 1.00e+000 2.70e-002h  1
 152 3.0000000e+002 3.12e-003 7.96e+015   0.1 1.19e-001  13.7 2.60e-001 1.11e-003h  1
 153 3.0000000e+002 2.86e-003 3.37e+015   0.1 1.82e-001  13.2 1.00e+000 8.51e-002h  1
 154 3.0000000e+002 2.86e-003 5.05e+015   0.1 8.39e-002  14.5 2.36e-002 3.20e-004h  1
 155 3.0000000e+002 2.86e-003 7.72e+016   0.1 9.78e-002  15.0 3.09e-001 2.17e-004h  1
 156 3.0000000e+002 2.01e-003 4.96e+016   0.1 9.90e-002  14.5 2.03e-002 4.49e-001h  1
 157 3.0000000e+002 2.00e-003 3.75e+016   0.1 1.45e-001  14.9 1.11e-001 2.43e-003h  1
 158 3.0000000e+002 2.00e-003 3.73e+016   0.1 4.03e-001  14.4 4.84e-003 2.50e-003h  1
 159 3.0000000e+002 1.98e-003 3.54e+016   0.1 1.43e-001  14.9 2.58e-002 7.43e-003h  1
iter    objective    inf_pr   inf_du lg(mu)  ||d||  lg(rg) alpha_du alpha_pr  ls
 160 3.0000000e+002 1.94e-003 3.50e+016   0.1 5.37e-001  14.4 1.05e-002 2.23e-002h  1
 161 3.0000000e+002 1.91e-003 3.48e+016   0.1 1.55e-001  14.8 1.03e-002 1.24e-002h  1
 162 3.0000000e+002 1.90e-003 3.25e+016   0.1 1.48e-001  15.2 2.23e-002 7.87e-003h  1
 163 3.0000000e+002 1.79e-003 3.30e+016   0.1 1.47e-001  14.7 3.01e-002 5.82e-002h  1
 164 3.0000000e+002 1.79e-003 2.11e+016   0.1 1.27e-001  16.1 6.53e-002 8.15e-004h  1
In iteration 164, 1 Slack too small, adjusting variable bound
 165 3.0000000e+002 1.78e-003 2.29e+016   0.1 8.61e-002  15.6 9.15e-003 3.46e-003h  1
 166 3.0000000e+002 1.68e-003 2.73e+016   0.1 1.33e-001  16.0 9.36e-005 5.38e-002h  1
 167 3.0000000e+002 1.68e-003 4.73e+016   0.1 1.32e-001  17.4 2.82e-007 2.43e-003h  1
 168 3.0000000e+002 1.68e-003 6.18e+016   0.1 1.36e-001  17.8 4.13e-005 8.89e-004h  1
 169 2.9999971e+002 1.68e-003 7.27e+016   0.1 1.18e-001  18.2 3.73e-007 3.05e-004h  1
iter    objective    inf_pr   inf_du lg(mu)  ||d||  lg(rg) alpha_du alpha_pr  ls
 170 2.9999908e+002 1.68e-003 7.55e+016   0.1 5.87e-002  17.7 9.26e-005 2.03e-004h  1
 171 2.9999906e+002 1.68e-003 6.12e+016   0.1 1.02e-001  18.2 5.34e-004 1.08e-005h  1
 172r2.9999906e+002 1.68e-003 9.99e+002   0.1 0.00e+000  17.7 0.00e+000 9.55e-009R  2
 173r2.9999760e+002 1.66e-003 3.03e+003  -1.0 1.20e+000    -  5.91e-001 4.97e-002f  1
 174 2.9995830e+002 1.66e-003 2.16e+004   0.1 1.86e+001    -  7.93e-002 1.07e-004f  1
 175 2.9989585e+002 1.76e-003 1.54e+004   0.1 4.56e+000    -  1.40e-002 6.72e-002f  1
 176 2.9990334e+002 1.75e-003 4.16e+013   0.1 3.05e-002  17.2 9.98e-001 8.56e-003h  1
 177 2.9990342e+002 1.75e-003 4.17e+013   0.1 2.18e-002  16.7 3.26e-001 8.70e-005h  1
 178r2.9990342e+002 1.75e-003 9.99e+002   0.1 0.00e+000  16.2 0.00e+000 4.33e-007R  2
 179r2.9990176e+002 1.42e-003 2.46e+003  -1.2 4.47e-001    -  7.64e-001 7.00e-002f  1
iter    objective    inf_pr   inf_du lg(mu)  ||d||  lg(rg) alpha_du alpha_pr  ls
 180 2.9985309e+002 1.42e-003 5.75e+004   0.1 7.79e+000    -  2.50e-001 2.08e-004f  2
 181 2.9964951e+002 1.65e-003 5.28e+004   0.1 3.16e+000    -  1.42e-001 1.09e-001f  3
 182 2.9930961e+002 1.60e-003 5.37e+004   0.1 3.35e+000    -  8.76e-002 2.94e-002h  5
 183 2.9900264e+002 1.55e-003 5.47e+004   0.1 3.51e+000    -  9.94e-002 2.91e-002h  5
 184 2.9855088e+002 1.51e-003 8.06e+004   0.1 3.76e+000    -  2.13e-001 2.70e-002h  5
 185 2.9834951e+002 1.49e-003 9.90e+004   0.1 4.20e+000    -  1.32e-001 1.42e-002h  6
 186 2.9839323e+002 1.41e-003 2.02e+014   0.1 4.78e-002  15.8 1.00e+000 5.61e-002h  1
 187 2.9839324e+002 1.40e-003 2.01e+014   0.1 6.66e-002  15.3 1.15e-001 6.57e-004h  1
 188r2.9839324e+002 1.40e-003 9.99e+002   0.1 0.00e+000  15.7 0.00e+000 3.77e-007R  5
 189r2.9836885e+002 1.31e-003 3.04e+003  -1.0 6.00e-001    -  7.14e-001 7.95e-002f  1
Reallocating memory for MA57: lfact (1231015)
iter    objective    inf_pr   inf_du lg(mu)  ||d||  lg(rg) alpha_du alpha_pr  ls
 190 2.9831539e+002 1.31e-003 9.30e+004   0.1 5.11e+000    -  6.20e-001 5.30e-004h  1
 191 2.9826897e+002 1.30e-003 9.30e+004   0.1 5.22e+000    -  2.88e-001 6.07e-003f  8
 192 2.9818605e+002 1.30e-003 1.40e+005   0.1 5.89e+000    -  5.24e-001 6.06e-003f  8
 193 2.9819243e+002 1.29e-003 6.26e+011   0.1 5.00e-002  15.2 1.00e+000 7.15e-003h  1
 194 2.9819248e+002 1.29e-003 6.27e+011   0.1 4.30e-002  14.8 1.00e+000 4.71e-005h  1
 195 2.9819256e+002 1.29e-003 7.70e+014   0.1 1.96e-002  14.3 9.11e-001 5.38e-005h  1
 196 2.9824090e+002 1.25e-003 3.30e+014   0.1 2.08e-002  13.8 1.00e+000 3.21e-002h  1
 197 2.9824151e+002 1.25e-003 2.15e+014   0.1 2.16e-002  13.3 5.24e-001 3.73e-004h  1
 198 2.9866464e+002 1.01e-003 3.53e+014   0.1 2.70e-002  12.9 1.00e+000 1.90e-001h  1
 199 2.9870462e+002 9.89e-004 5.96e+013   0.1 2.43e-002  12.4 1.00e+000 1.93e-002h  1
iter    objective    inf_pr   inf_du lg(mu)  ||d||  lg(rg) alpha_du alpha_pr  ls
 200 2.9870500e+002 9.89e-004 2.50e+014   0.1 2.21e-002  12.8 1.00e+000 2.04e-004h  1
 201 2.9870555e+002 9.89e-004 6.67e+013   0.1 2.88e-002  12.3 1.00e+000 2.41e-004h  1
 202 2.9948309e+002 6.23e-004 1.73e+014   0.1 2.32e-002  12.8 1.00e+000 3.70e-001h  1
 203 2.9999483e+002 4.25e-004 6.01e+013   0.1 4.33e-002  12.3 1.00e+000 3.18e-001h  1
 204 2.9999995e+002 4.23e-004 4.01e+013   0.1 1.08e-002  12.7 1.00e+000 5.02e-003h  1
 205 3.0000000e+002 4.23e-004 1.01e+014   0.1 1.09e-001  12.2 1.00e+000 5.16e-005h  1
 206 3.0000000e+002 4.15e-004 4.01e+013   0.1 1.48e-002  12.7 1.00e+000 1.76e-002h  1
 207 3.0000000e+002 2.49e-004 1.87e+014   0.1 1.38e-002  13.1 1.00e+000 4.00e-001h  1
 208 3.0000000e+002 2.17e-004 1.41e+014   0.1 1.29e-002  12.6 1.00e+000 1.28e-001h  1
 209 3.0000000e+002 2.17e-004 5.59e+013   0.1 7.94e-003  13.0 1.00e+000 1.47e-003h  1
iter    objective    inf_pr   inf_du lg(mu)  ||d||  lg(rg) alpha_du alpha_pr  ls
 210 3.0000000e+002 2.17e-004 6.76e+014   0.1 1.99e-002  12.6 1.00e+000 1.52e-005h  1
 211 3.0000000e+002 2.14e-004 4.16e+016   0.1 5.71e-001  13.0 7.70e-001 1.22e-002h  1
In iteration 211, 1 Slack too small, adjusting variable bound
 212 3.0000000e+002 2.14e-004 4.67e+016   0.1 5.50e-001  15.2 1.06e-003 4.73e-004h  1
 213 3.0000000e+002 2.14e-004 5.43e+015   0.1 5.60e-001  16.5 4.40e-006 2.16e-004h  1
In iteration 213, 1 Slack too small, adjusting variable bound
 214 3.0000000e+002 2.14e-004 4.43e+016   0.1 5.61e-001  17.9 3.16e-008 1.20e-005f  1
 215r3.0000000e+002 2.14e-004 9.99e+002   0.1 0.00e+000  18.3 0.00e+000 2.89e-007R  5
 216r3.0000000e+002 2.15e-003 9.85e+001  -5.9 8.47e-002    -  9.30e-001 7.79e-001f  1
 217r3.0000000e+002 3.40e-004 1.63e+002  -6.8 1.07e-001    -  5.23e-001 8.60e-001f  1
 218 2.9996178e+002 3.15e-004 4.04e+006   0.1 1.30e+002    -  7.63e-003 9.87e-005f  1
 219 2.9996176e+002 3.15e-004 7.84e+011   0.1 2.34e-003  17.8 9.97e-001 5.12e-004h  1
iter    objective    inf_pr   inf_du lg(mu)  ||d||  lg(rg) alpha_du alpha_pr  ls
 220r2.9996176e+002 3.15e-004 9.99e+002   0.1 0.00e+000  17.3 0.00e+000 3.20e-007R  5
 221r2.9996177e+002 4.27e-004 7.61e+002  -5.9 4.25e-002    -  5.19e-001 8.27e-001f  1
 222r2.9996067e+002 2.09e-003 1.89e+003  -2.4 3.36e-003   2.0 1.27e-001 4.02e-001f  1
 223r2.9994685e+002 1.32e-003 1.20e+003  -1.4 8.39e-001    -  4.30e-001 3.79e-001f  1
 224r2.9994399e+002 8.64e-004 1.87e+002  -2.7 7.06e-002    -  7.12e-001 8.52e-001f  1
 225r2.9993928e+002 2.16e-003 1.47e+003  -7.2 3.18e-003   2.4 2.29e-001 6.86e-001f  1
 226r2.9993711e+002 5.06e-004 3.46e+002  -3.5 1.48e-001    -  6.92e-001 7.65e-001f  1
 227r2.9993688e+002 3.15e-004 2.40e+002  -3.8 1.36e-003   1.9 8.57e-001 3.58e-001f  1
 228r2.9982737e+002 2.50e-003 2.89e+002  -4.0 2.08e-002   1.5 2.37e-001 7.67e-001f  1
 229r2.9975777e+002 1.95e-003 6.76e+002  -4.2 1.28e-002   2.8 6.80e-001 7.27e-001f  1
iter    objective    inf_pr   inf_du lg(mu)  ||d||  lg(rg) alpha_du alpha_pr  ls
 230r2.9990158e+002 4.05e-005 3.40e+002  -3.5 7.48e-003   2.3 5.35e-001 1.00e+000f  1
 231 2.9990254e+002 4.05e-005 4.09e+005   0.1 5.86e+001    -  3.65e-002 8.90e-006f  2
 232 2.9985335e+002 5.84e-005 1.03e+006   0.1 3.42e+000    -  7.10e-002 1.46e-002f  1
 233 2.9940808e+002 2.27e-003 9.01e+005   0.1 3.55e+000    -  7.44e-003 1.77e-002F  1
 234 2.9940751e+002 2.17e-003 3.17e+013   0.1 1.03e-002  16.9 9.98e-001 4.22e-002h  1
 235 2.9940751e+002 2.17e-003 3.18e+013   0.1 9.87e-003  16.4 7.08e-001 4.40e-004h  1
 236r2.9940751e+002 2.17e-003 9.99e+002   0.1 0.00e+000  15.9 0.00e+000 2.75e-007R  5
 237r2.9940318e+002 2.56e-003 3.62e+002  -2.0 2.54e-001    -  8.97e-001 4.38e-001f  1
 238r2.9936589e+002 1.37e-004 1.58e+002  -2.5 2.68e-001    -  4.75e-001 9.41e-001f  1
 239r2.9936441e+002 1.94e-005 2.26e+001  -7.2 5.12e-002    -  8.81e-001 8.57e-001f  1
iter    objective    inf_pr   inf_du lg(mu)  ||d||  lg(rg) alpha_du alpha_pr  ls
 240 2.9934694e+002 1.94e-005 6.84e+005   0.1 1.17e+001    -  5.28e-001 1.04e-004f  2
 241 2.9816523e+002 3.00e-002 2.35e+005   0.1 4.85e+000    -  1.17e-002 2.35e-001F  1
 242 2.9816630e+002 2.94e-002 1.96e+012   0.1 3.65e-002  15.4 3.63e-001 1.99e-002h  1
 243 2.9816632e+002 2.93e-002 1.96e+012   0.1 3.56e-002  15.0 7.61e-001 2.03e-004h  1
 244r2.9816632e+002 2.93e-002 9.99e+002   0.1 0.00e+000  14.5 0.00e+000 2.77e-007R  4
 245r2.9816489e+002 2.74e-002 1.49e+003  -1.1 7.24e+001    -  1.61e-001 4.18e-003f  1
 246 2.9818365e+002 2.74e-002 5.20e+004   0.1 5.71e+001    -  4.35e-002 8.48e-005h  1
 247 2.9293302e+002 2.32e-002 4.84e+004   0.1 6.61e+000    -  7.15e-002 1.49e-001h  1
 248 2.9295404e+002 2.09e-002 3.98e+011   0.1 3.98e-002  14.0 9.98e-001 1.00e-001h  1
 249 2.9295426e+002 2.09e-002 3.99e+011   0.1 3.58e-002  13.5 8.08e-001 1.11e-003h  1
iter    objective    inf_pr   inf_du lg(mu)  ||d||  lg(rg) alpha_du alpha_pr  ls
 250 2.9295426e+002 2.09e-002 2.46e+013   0.1 3.56e-002  13.0 1.00e+000 1.18e-005h  1
 251 2.9299572e+002 1.91e-002 1.07e+014   0.1 3.85e-002  12.6 7.86e-001 8.38e-002h  2
 252 2.9303404e+002 1.76e-002 3.18e+014   0.1 3.45e-002  13.0 1.00e+000 8.24e-002h  3
 253 2.9303560e+002 1.75e-002 7.33e+013   0.1 3.10e-002  12.5 9.82e-001 3.60e-003h  8
 254 2.9303576e+002 1.75e-002 2.52e+014   0.1 3.13e-002  12.9 1.00e+000 3.77e-004h 11
 255 2.9303577e+002 1.75e-002 5.60e+013   0.1 3.08e-002  12.5 1.00e+000 2.79e-005h 15
 256 2.9319448e+002 1.10e-002 1.38e+014   0.1 3.12e-002  12.9 1.00e+000 3.69e-001h  1
 257 2.9322780e+002 9.83e-003 5.93e+013   0.1 1.76e-002  12.4 1.00e+000 1.08e-001h  1
 258 2.9322819e+002 9.82e-003 9.84e+013   0.1 1.40e-002  11.9 1.00e+000 1.29e-003h  1
 259 2.9323556e+002 9.57e-003 6.88e+013   0.1 1.34e-002  12.4 1.00e+000 2.55e-002h  1
iter    objective    inf_pr   inf_du lg(mu)  ||d||  lg(rg) alpha_du alpha_pr  ls
 260 2.9324790e+002 9.19e-003 9.48e+013   0.1 1.37e-002  11.9 1.00e+000 3.97e-002h  1
 261 2.9324949e+002 9.15e-003 6.30e+013   0.1 1.24e-002  12.3 1.00e+000 3.73e-003h  1
 262 2.9343345e+002 5.42e-003 5.12e+013   0.1 1.82e-002  11.8 8.66e-001 4.08e-001h  1
 263 2.9343526e+002 5.38e-003 4.54e+013   0.1 7.16e-003  12.3 1.00e+000 6.90e-003h  1
 264 2.9343528e+002 5.38e-003 6.21e+013   0.1 1.40e-002  11.8 1.00e+000 7.21e-005h  1
 265 2.9343671e+002 5.31e-003 1.32e+015   0.1 3.35e-001  12.2 5.14e-001 1.36e-002h  1
 266 2.9354182e+002 3.31e-004 5.41e+014   0.1 3.30e-001  11.7 1.74e-002 9.38e-001h  1
 267 2.9354306e+002 2.81e-004 6.39e+014   0.1 2.11e-002  12.2 2.61e-004 1.50e-001h  1
 268 2.9354308e+002 2.81e-004 3.73e+014   0.1 1.80e-002  12.6 1.00e+000 1.77e-003h  1
 269 2.9354308e+002 2.81e-004 3.94e+014   0.1 1.79e-002  12.1 9.56e-002 1.77e-005h  1
iter    objective    inf_pr   inf_du lg(mu)  ||d||  lg(rg) alpha_du alpha_pr  ls
 270r2.9354308e+002 2.81e-004 9.99e+002   0.1 0.00e+000  12.5 0.00e+000 3.42e-007R  4
 271r2.9354235e+002 1.06e-004 3.88e+001  -5.9 1.67e-002    -  9.70e-001 6.79e-001f  1
 272 2.9354237e+002 1.06e-004 3.19e+005   0.1 2.60e+003    -  1.85e-004 4.02e-009f  1
 273 2.9345312e+002 1.05e-004 3.31e+007   0.1 9.54e+000    -  5.67e-001 5.90e-003f  2
 274 2.9345309e+002 1.04e-004 1.79e+008   0.1 2.09e-003  12.1 1.00e+000 5.95e-003h  1
 275 2.9345309e+002 1.04e-004 2.57e+012   0.1 2.08e-003  11.6 1.00e+000 6.53e-005h  1
 276 2.9345307e+002 1.04e-004 2.04e+013   0.1 1.72e-002  11.1 1.00e+000 1.89e-003h  1
 277 2.9345133e+002 1.04e-004 3.18e+015   0.1 5.00e-001  10.6 9.86e-001 5.81e-003h  1
 278 2.9336153e+002 6.55e-005 5.45e+015   0.1 4.99e-001  11.1 1.00e+000 3.67e-001h  1
In iteration 278, 1 Slack too small, adjusting variable bound
 279 2.9336040e+002 6.49e-005 9.22e+017   0.1 3.17e-001  13.3 1.00e+000 9.14e-003h  1
In iteration 279, 2 Slacks too small, adjusting variable bounds
iter    objective    inf_pr   inf_du lg(mu)  ||d||  lg(rg) alpha_du alpha_pr  ls
 280 2.9331489e+002 4.05e-005 1.53e+018   0.1 3.14e-001  13.7 1.00e+000 3.76e-001h  1
In iteration 280, 2 Slacks too small, adjusting variable bounds
 281 2.9330834e+002 3.75e-005 2.95e+019   0.1 1.96e-001  15.0 1.00e+000 7.46e-002h  1
In iteration 281, 2 Slacks too small, adjusting variable bounds
 282 2.9330555e+002 3.57e-005 6.14e+020   0.1 1.81e-001  16.4 1.00e+000 4.99e-002h  1
In iteration 282, 2 Slacks too small, adjusting variable bounds
 283 2.9328298e+002 2.17e-005 9.80e+020   0.1 1.72e-001  16.8 1.00e+000 3.91e-001h  1
In iteration 283, 2 Slacks too small, adjusting variable bounds
 284 2.9326045e+002 8.49e-006 7.85e+020   0.1 1.05e-001  17.2 1.00e+000 6.09e-001h  1
In iteration 284, 2 Slacks too small, adjusting variable bounds
 285 2.9324913e+002 1.03e-006 4.51e+019   0.1 4.10e-002  17.6 1.00e+000 9.50e-001h  1
 286 2.9324879e+002 2.08e-007 1.05e+016   0.1 2.06e-003  18.1 1.00e+000 1.00e+000h  1
 287 2.9324878e+002 6.78e-008 3.72e+018   2.6 2.15e-006  17.6 9.90e-001 1.00e+000f  1
 288 2.9324878e+002 2.21e-008 3.73e+016   2.5 7.03e-007  17.1 9.90e-001 1.00e+000f  1
 289 2.9324878e+002 7.22e-009 3.69e+014   2.5 2.29e-007  16.6 9.90e-001 1.00e+000f  1
iter    objective    inf_pr   inf_du lg(mu)  ||d||  lg(rg) alpha_du alpha_pr  ls
 290 2.9324877e+002 2.35e-009 2.26e+009   2.5 1.56e-007  16.2 1.00e+000 1.00e+000f  1
 291 2.9324877e+002 7.68e-010 1.18e+008   1.2 2.44e-008  15.7 1.00e+000 1.00e+000f  1
 292 2.9324877e+002 2.51e-010 7.20e+007   1.1 4.46e-008  15.2 1.00e+000 1.00e+000f  1
 293 2.9324877e+002 8.17e-011 7.53e+006   0.4 1.40e-008  14.7 1.00e+000 1.00e+000f  1
 294 2.9324877e+002 2.67e-011 1.95e+006  -0.3 1.09e-008  14.3 1.00e+000 1.00e+000f  1
 295 2.9324877e+002 8.71e-012 3.88e+005  -1.0 6.49e-009  13.8 1.00e+000 1.00e+000f  1
 296 2.9324877e+002 2.86e-012 7.96e+004  -1.7 3.99e-009  13.3 1.00e+000 1.00e+000f  1
 297 2.9324877e+002 9.18e-013 1.11e+004  -2.6 1.68e-009  12.8 1.00e+000 1.00e+000h  1
 298 2.9324877e+002 3.26e-013 1.14e+004  -2.6 5.13e-009  12.3 1.00e+000 1.00e+000f  1
 299 2.9324877e+002 5.08e-013 1.07e+004  -2.6 1.45e-008  11.9 1.00e+000 1.00e+000f  1
iter    objective    inf_pr   inf_du lg(mu)  ||d||  lg(rg) alpha_du alpha_pr  ls
 300 2.9324877e+002 5.28e-013 9.22e+003  -2.6 3.75e-008  11.4 1.00e+000 1.00e+000f  1

Number of Iterations....: 300

                                   (scaled)                 (unscaled)
Objective...............:  9.7749591568889045e+001   2.9324877470343057e+002
Dual infeasibility......:  9.2233647776463731e+003   2.7670094332633726e+004
Constraint violation....:  5.2784088211410557e-013   5.2784088211410557e-013
Complementarity.........:  2.6301435715045942e-003   7.8904307144266970e-003
Overall NLP error.......:  9.5776777808166694e-002   2.7670094332633726e+004


Number of objective function evaluations             = 496
Number of objective gradient evaluations             = 275
Number of equality constraint evaluations            = 496
Number of inequality constraint evaluations          = 496
Number of equality constraint Jacobian evaluations   = 316
Number of inequality constraint Jacobian evaluations = 316
Number of Lagrangian Hessian evaluations             = 300
Total CPU secs in IPOPT (w/o function evaluations)   =     69.684
Total CPU secs in NLP function evaluations           =    262.134

EXIT: Maximum Number of Iterations Exceeded.
